% Logging successfully configured
%%%mzn-stat: initTime=0.025553795
%%%mzn-stat: objective=959
%%%mzn-stat: nodes=183
%%%mzn-stat: restarts=0
%%%mzn-stat: peakDepth=182
%%%mzn-stat: solveTime=0.002849189
%%%mzn-stat: variables=488
%%%mzn-stat: propagators=305
%%%mzn-stat: failures=1
%%%mzn-stat: propagations=1051
%%%mzn-stat: nogoods=1
%%%mzn-stat: numAtomicConstraintsPropagated=0
%%%mzn-stat: circuitNumber1PropagationsTotal=50
%%%mzn-stat: circuitNumber1CircuitConflicts=1
%%%mzn-stat: circuitNumber1AlldiffConflicts=0
%%%mzn-stat: circuitNumber1TotalFixedEdgesAtConflict=46
%%%mzn-stat: circuitNumber1NumberOfConflicts=1
%%%mzn-stat: circuitNumber1GacPrunings=111
%%%mzn-stat: circuitNumber1PropagationsThatGacPruned=26
%%%mzn-stat: circuitNumber1TotalPruningHallSetSize=751
%%%mzn-stat: circuitNumber1NumberOfPruningExplanations=111
%%%mzn-stat: circuitNumber1MaxPruningHallSetSize=46
%%%mzn-stat: circuitNumber1TotalSccSizeAtPruning=516
%%%mzn-stat: circuitNumber1NumberOfSccPruningCalls=26
%%%mzn-stat: circuitNumber1TotalVarsInvolvedInPruning=95
%%%mzn-stat: circuitNumber1MaxValuesPrunedFromSingleVar=3
%%%mzn-stat: circuitNumber1HallCircuitChecks=48
%%%mzn-stat: circuitNumber1HallCircuitPrunings=1
%%%mzn-stat: circuitNumber1CircuitPreventPrunings=20
%%%mzn-stat: AverageConflictSize=3
%%%mzn-stat: NumUnitNogoodsLearned=0
%%%mzn-stat: AverageLearnedNogoodLength=13
%%%mzn-stat: AverageBacktrackAmount=0
%%%mzn-stat: AverageLbd=6
%%%mzn-stat: 2AutonomousSearchNumBackupCalled=167
%%%mzn-stat: 2AutonomousSearchNumPredicatesRemoved=0
%%%mzn-stat: 2AutonomousSearchNumCalls=168
%%%mzn-stat: 2AutonomousSearchNumPredicatesAdded=37
%%%mzn-stat: 2AutonomousSearchAverageSizeOfHeap=0.22023809523809523
%%%mzn-stat: 2AutonomousSearchNumAssignedPredicatesEncountered=37
%%%mzn-stat-end
maxleg = 959;
succ = array1d(1..50,[5, 12, 8, 10, 26, 9, 14, 28, 46, 21, 3, 34, 37, 23, 11, 33, 49, 6, 15, 19, 1, 2, 48, 31, 38, 43, 36, 32, 27, 24, 50, 18, 42, 45, 40, 35, 4, 47, 20, 22, 25, 17, 41, 13, 7, 29, 39, 30, 44, 16]);
% time elapsed: 9.76 s
----------
%%%mzn-stat: initTime=0.025553795
%%%mzn-stat: objective=936
%%%mzn-stat: nodes=373
%%%mzn-stat: restarts=0
%%%mzn-stat: peakDepth=183
%%%mzn-stat: solveTime=0.008325866
%%%mzn-stat: variables=488
%%%mzn-stat: propagators=305
%%%mzn-stat: failures=7
%%%mzn-stat: propagations=1820
%%%mzn-stat: nogoods=7
%%%mzn-stat: numAtomicConstraintsPropagated=0
%%%mzn-stat: circuitNumber1PropagationsTotal=124
%%%mzn-stat: circuitNumber1CircuitConflicts=4
%%%mzn-stat: circuitNumber1AlldiffConflicts=0
%%%mzn-stat: circuitNumber1TotalFixedEdgesAtConflict=172
%%%mzn-stat: circuitNumber1NumberOfConflicts=4
%%%mzn-stat: circuitNumber1GacPrunings=316
%%%mzn-stat: circuitNumber1PropagationsThatGacPruned=65
%%%mzn-stat: circuitNumber1TotalPruningHallSetSize=2008
%%%mzn-stat: circuitNumber1NumberOfPruningExplanations=316
%%%mzn-stat: circuitNumber1MaxPruningHallSetSize=46
%%%mzn-stat: circuitNumber1TotalSccSizeAtPruning=1110
%%%mzn-stat: circuitNumber1NumberOfSccPruningCalls=65
%%%mzn-stat: circuitNumber1TotalVarsInvolvedInPruning=266
%%%mzn-stat: circuitNumber1MaxValuesPrunedFromSingleVar=3
%%%mzn-stat: circuitNumber1HallCircuitChecks=178
%%%mzn-stat: circuitNumber1HallCircuitPrunings=2
%%%mzn-stat: circuitNumber1CircuitPreventPrunings=49
%%%mzn-stat: AverageConflictSize=10.285714285714286
%%%mzn-stat: NumUnitNogoodsLearned=0
%%%mzn-stat: AverageLearnedNogoodLength=11.142857142857142
%%%mzn-stat: AverageBacktrackAmount=0
%%%mzn-stat: AverageLbd=7.428571428571429
%%%mzn-stat: 2AutonomousSearchNumBackupCalled=334
%%%mzn-stat: 2AutonomousSearchNumPredicatesRemoved=0
%%%mzn-stat: 2AutonomousSearchNumCalls=336
%%%mzn-stat: 2AutonomousSearchNumPredicatesAdded=641
%%%mzn-stat: 2AutonomousSearchAverageSizeOfHeap=2.0089285714285716
%%%mzn-stat: 2AutonomousSearchNumAssignedPredicatesEncountered=675
%%%mzn-stat-end
maxleg = 936;
succ = array1d(1..50,[5, 12, 8, 10, 26, 9, 14, 28, 46, 21, 3, 43, 37, 23, 11, 33, 49, 6, 15, 19, 1, 40, 24, 48, 38, 35, 17, 32, 27, 22, 44, 18, 42, 45, 36, 50, 4, 47, 20, 2, 25, 34, 41, 13, 7, 29, 39, 30, 31, 16]);
% time elapsed: 9.76 s
----------
%%%mzn-stat: initTime=0.025553795
%%%mzn-stat: objective=765
%%%mzn-stat: nodes=640
%%%mzn-stat: restarts=0
%%%mzn-stat: peakDepth=191
%%%mzn-stat: solveTime=0.047297991
%%%mzn-stat: variables=488
%%%mzn-stat: propagators=305
%%%mzn-stat: failures=70
%%%mzn-stat: propagations=5093
%%%mzn-stat: nogoods=70
%%%mzn-stat: numAtomicConstraintsPropagated=0
%%%mzn-stat: circuitNumber1PropagationsTotal=555
%%%mzn-stat: circuitNumber1CircuitConflicts=45
%%%mzn-stat: circuitNumber1AlldiffConflicts=6
%%%mzn-stat: circuitNumber1TotalFixedEdgesAtConflict=1904
%%%mzn-stat: circuitNumber1NumberOfConflicts=51
%%%mzn-stat: circuitNumber1GacPrunings=1572
%%%mzn-stat: circuitNumber1PropagationsThatGacPruned=301
%%%mzn-stat: circuitNumber1TotalPruningHallSetSize=9443
%%%mzn-stat: circuitNumber1NumberOfPruningExplanations=1572
%%%mzn-stat: circuitNumber1MaxPruningHallSetSize=46
%%%mzn-stat: circuitNumber1TotalSccSizeAtPruning=4289
%%%mzn-stat: circuitNumber1NumberOfSccPruningCalls=301
%%%mzn-stat: circuitNumber1TotalVarsInvolvedInPruning=1281
%%%mzn-stat: circuitNumber1MaxValuesPrunedFromSingleVar=4
%%%mzn-stat: circuitNumber1HallCircuitChecks=792
%%%mzn-stat: circuitNumber1HallCircuitPrunings=3
%%%mzn-stat: circuitNumber1CircuitPreventPrunings=228
%%%mzn-stat: AverageConflictSize=13.085714285714285
%%%mzn-stat: NumUnitNogoodsLearned=0
%%%mzn-stat: AverageLearnedNogoodLength=21.37142857142857
%%%mzn-stat: AverageBacktrackAmount=0
%%%mzn-stat: AverageLbd=10.6
%%%mzn-stat: 2AutonomousSearchNumBackupCalled=506
%%%mzn-stat: 2AutonomousSearchNumPredicatesRemoved=0
%%%mzn-stat: 2AutonomousSearchNumCalls=509
%%%mzn-stat: 2AutonomousSearchNumPredicatesAdded=2305
%%%mzn-stat: 2AutonomousSearchAverageSizeOfHeap=4.632612966601179
%%%mzn-stat: 2AutonomousSearchNumAssignedPredicatesEncountered=2358
%%%mzn-stat-end
maxleg = 765;
succ = array1d(1..50,[5, 12, 8, 10, 26, 9, 14, 38, 18, 21, 15, 43, 37, 23, 19, 11, 42, 32, 20, 31, 1, 2, 24, 48, 47, 46, 17, 3, 27, 6, 50, 28, 16, 45, 40, 35, 4, 25, 49, 22, 34, 33, 41, 13, 7, 29, 39, 30, 44, 36]);
% time elapsed: 9.76 s
----------
%%%mzn-stat: initTime=0.025553795
%%%mzn-stat: objective=683
%%%mzn-stat: nodes=816
%%%mzn-stat: restarts=0
%%%mzn-stat: peakDepth=191
%%%mzn-stat: solveTime=0.050447222
%%%mzn-stat: variables=488
%%%mzn-stat: propagators=305
%%%mzn-stat: failures=70
%%%mzn-stat: propagations=5674
%%%mzn-stat: nogoods=70
%%%mzn-stat: numAtomicConstraintsPropagated=0
%%%mzn-stat: circuitNumber1PropagationsTotal=602
%%%mzn-stat: circuitNumber1CircuitConflicts=45
%%%mzn-stat: circuitNumber1AlldiffConflicts=6
%%%mzn-stat: circuitNumber1TotalFixedEdgesAtConflict=1904
%%%mzn-stat: circuitNumber1NumberOfConflicts=51
%%%mzn-stat: circuitNumber1GacPrunings=1667
%%%mzn-stat: circuitNumber1PropagationsThatGacPruned=327
%%%mzn-stat: circuitNumber1TotalPruningHallSetSize=10134
%%%mzn-stat: circuitNumber1NumberOfPruningExplanations=1667
%%%mzn-stat: circuitNumber1MaxPruningHallSetSize=46
%%%mzn-stat: circuitNumber1TotalSccSizeAtPruning=4734
%%%mzn-stat: circuitNumber1NumberOfSccPruningCalls=327
%%%mzn-stat: circuitNumber1TotalVarsInvolvedInPruning=1363
%%%mzn-stat: circuitNumber1MaxValuesPrunedFromSingleVar=4
%%%mzn-stat: circuitNumber1HallCircuitChecks=855
%%%mzn-stat: circuitNumber1HallCircuitPrunings=4
%%%mzn-stat: circuitNumber1CircuitPreventPrunings=248
%%%mzn-stat: AverageConflictSize=13.085714285714285
%%%mzn-stat: NumUnitNogoodsLearned=0
%%%mzn-stat: AverageLearnedNogoodLength=21.37142857142857
%%%mzn-stat: AverageBacktrackAmount=0
%%%mzn-stat: AverageLbd=10.6
%%%mzn-stat: 2AutonomousSearchNumBackupCalled=665
%%%mzn-stat: 2AutonomousSearchNumPredicatesRemoved=0
%%%mzn-stat: 2AutonomousSearchNumCalls=669
%%%mzn-stat: 2AutonomousSearchNumPredicatesAdded=2305
%%%mzn-stat: 2AutonomousSearchAverageSizeOfHeap=6.040358744394619
%%%mzn-stat: 2AutonomousSearchNumAssignedPredicatesEncountered=4041
%%%mzn-stat-end
maxleg = 683;
succ = array1d(1..50,[5, 12, 8, 10, 26, 9, 14, 38, 18, 21, 15, 43, 37, 23, 19, 11, 42, 32, 20, 31, 1, 2, 24, 48, 47, 46, 36, 3, 27, 6, 44, 28, 50, 45, 40, 35, 4, 25, 49, 22, 34, 33, 41, 13, 7, 29, 39, 30, 17, 16]);
% time elapsed: 9.76 s
----------
%%%mzn-stat: initTime=0.025553795
%%%mzn-stat: objective=272
%%%mzn-stat: nodes=1565
%%%mzn-stat: restarts=0
%%%mzn-stat: peakDepth=191
%%%mzn-stat: solveTime=0.354507689
%%%mzn-stat: variables=488
%%%mzn-stat: propagators=305
%%%mzn-stat: failures=593
%%%mzn-stat: propagations=28509
%%%mzn-stat: nogoods=593
%%%mzn-stat: numAtomicConstraintsPropagated=0
%%%mzn-stat: circuitNumber1PropagationsTotal=3690
%%%mzn-stat: circuitNumber1CircuitConflicts=278
%%%mzn-stat: circuitNumber1AlldiffConflicts=84
%%%mzn-stat: circuitNumber1TotalFixedEdgesAtConflict=12892
%%%mzn-stat: circuitNumber1NumberOfConflicts=362
%%%mzn-stat: circuitNumber1GacPrunings=10767
%%%mzn-stat: circuitNumber1PropagationsThatGacPruned=2138
%%%mzn-stat: circuitNumber1TotalPruningHallSetSize=76425
%%%mzn-stat: circuitNumber1NumberOfPruningExplanations=10767
%%%mzn-stat: circuitNumber1MaxPruningHallSetSize=46
%%%mzn-stat: circuitNumber1TotalSccSizeAtPruning=34078
%%%mzn-stat: circuitNumber1NumberOfSccPruningCalls=2138
%%%mzn-stat: circuitNumber1TotalVarsInvolvedInPruning=8809
%%%mzn-stat: circuitNumber1MaxValuesPrunedFromSingleVar=4
%%%mzn-stat: circuitNumber1HallCircuitChecks=7314
%%%mzn-stat: circuitNumber1HallCircuitPrunings=71
%%%mzn-stat: circuitNumber1CircuitPreventPrunings=1537
%%%mzn-stat: AverageConflictSize=10.930860033726812
%%%mzn-stat: NumUnitNogoodsLearned=0
%%%mzn-stat: AverageLearnedNogoodLength=23.541315345699832
%%%mzn-stat: AverageBacktrackAmount=0
%%%mzn-stat: AverageLbd=10.101180438448566
%%%mzn-stat: 2AutonomousSearchNumBackupCalled=803
%%%mzn-stat: 2AutonomousSearchNumPredicatesRemoved=0
%%%mzn-stat: 2AutonomousSearchNumCalls=808
%%%mzn-stat: 2AutonomousSearchNumPredicatesAdded=4515
%%%mzn-stat: 2AutonomousSearchAverageSizeOfHeap=7.850247524752476
%%%mzn-stat: 2AutonomousSearchNumAssignedPredicatesEncountered=6343
%%%mzn-stat-end
maxleg = 272;
succ = array1d(1..50,[5, 12, 8, 10, 26, 18, 14, 38, 46, 21, 16, 34, 37, 23, 11, 33, 42, 9, 15, 19, 1, 2, 24, 48, 47, 43, 17, 3, 36, 6, 49, 28, 50, 45, 40, 27, 4, 41, 20, 22, 25, 32, 35, 13, 7, 29, 39, 30, 44, 31]);
% time elapsed: 10.06 s
----------
==========
% time elapsed: 10.06 s
%%%mzn-stat: initTime=0.025553795
%%%mzn-stat: objective=272
%%%mzn-stat: nodes=1565
%%%mzn-stat: restarts=0
%%%mzn-stat: peakDepth=191
%%%mzn-stat: solveTime=0.354763052
%%%mzn-stat: variables=488
%%%mzn-stat: propagators=305
%%%mzn-stat: failures=594
%%%mzn-stat: propagations=28572
%%%mzn-stat: nogoods=594
%%%mzn-stat: numAtomicConstraintsPropagated=0
%%%mzn-stat: circuitNumber1PropagationsTotal=3691
%%%mzn-stat: circuitNumber1CircuitConflicts=278
%%%mzn-stat: circuitNumber1AlldiffConflicts=84
%%%mzn-stat: circuitNumber1TotalFixedEdgesAtConflict=12892
%%%mzn-stat: circuitNumber1NumberOfConflicts=362
%%%mzn-stat: circuitNumber1GacPrunings=10771
%%%mzn-stat: circuitNumber1PropagationsThatGacPruned=2139
%%%mzn-stat: circuitNumber1TotalPruningHallSetSize=76525
%%%mzn-stat: circuitNumber1NumberOfPruningExplanations=10771
%%%mzn-stat: circuitNumber1MaxPruningHallSetSize=49
%%%mzn-stat: circuitNumber1TotalSccSizeAtPruning=34175
%%%mzn-stat: circuitNumber1NumberOfSccPruningCalls=2139
%%%mzn-stat: circuitNumber1TotalVarsInvolvedInPruning=8812
%%%mzn-stat: circuitNumber1MaxValuesPrunedFromSingleVar=4
%%%mzn-stat: circuitNumber1HallCircuitChecks=7315
%%%mzn-stat: circuitNumber1HallCircuitPrunings=71
%%%mzn-stat: circuitNumber1CircuitPreventPrunings=1538
%%%mzn-stat: AverageConflictSize=10.915824915824915
%%%mzn-stat: NumUnitNogoodsLearned=1
%%%mzn-stat: AverageLearnedNogoodLength=23.503367003367003
%%%mzn-stat: AverageBacktrackAmount=0
%%%mzn-stat: AverageLbd=10.085858585858587
%%%mzn-stat: 2AutonomousSearchNumBackupCalled=803
%%%mzn-stat: 2AutonomousSearchNumPredicatesRemoved=0
%%%mzn-stat: 2AutonomousSearchNumCalls=808
%%%mzn-stat: 2AutonomousSearchNumPredicatesAdded=4726
%%%mzn-stat: 2AutonomousSearchAverageSizeOfHeap=7.850247524752476
%%%mzn-stat: 2AutonomousSearchNumAssignedPredicatesEncountered=6343
%%%mzn-stat-end
